c Random 4-CNF over 30 variables and 90 clauses
c Generated with `cnfgen`
c (C) 2012-2016 Massimo Lauria <lauria.massimo@gmail.com>
c https://massimolauria.github.io/cnfgen
c
c COMMAND LINE: cnfgen --output tmp-4-30-90.dimacs --output-format dimacs randkcnf 4 30 90
c
c sdimacs generated by gen-sdimacs
c
p cnf 30 90
r 0.5 1 2 3 4 5 6 7 8 9 10 11 12 13 14 15 0
e  16 17 18 19 20 21 22 23 24 25 26 27 28 29 30 0
-3 -10 -14 21 0
12 -14 -20 28 0
-12 13 22 26 0
12 -13 18 27 0
-4 -9 -10 -20 0
-10 23 -26 30 0
-19 21 -22 -23 0
-13 -18 -25 -29 0
9 16 -17 -18 0
3 -4 -25 -28 0
-6 11 -26 -27 0
-13 -18 -20 -30 0
-2 -9 -12 -18 0
-9 -13 -18 -30 0
2 8 20 -29 0
-5 16 -17 -22 0
11 -14 19 -28 0
12 -13 -21 26 0
-2 3 7 -15 0
5 17 -18 -24 0
5 -7 9 27 0
5 -7 -25 26 0
-1 -13 20 -21 0
-5 -14 -19 22 0
3 15 -16 -27 0
2 -11 20 -25 0
-9 23 27 -30 0
16 18 19 28 0
-5 -17 -22 23 0
2 6 23 30 0
-1 15 -23 26 0
-3 -13 19 20 0
-9 10 -21 -30 0
8 -14 18 -20 0
16 17 -20 -30 0
-15 19 -23 24 0
-12 13 15 21 0
12 13 19 -23 0
-3 5 7 24 0
-11 12 13 -15 0
-4 -5 14 28 0
16 19 22 -29 0
-15 -16 20 21 0
10 -15 -21 -24 0
3 6 10 24 0
-15 16 27 29 0
-4 8 -13 21 0
11 -13 19 -27 0
-2 -4 -6 27 0
7 -12 -16 -29 0
2 -17 23 -28 0
-17 22 -24 26 0
7 -8 14 19 0
11 -23 26 -29 0
-4 -5 6 -23 0
-2 -14 -16 18 0
4 5 -6 -26 0
-9 -17 -20 -30 0
10 -12 25 -28 0
-6 12 -14 25 0
-1 -6 15 17 0
-5 -9 -25 28 0
-1 12 -28 -30 0
-1 6 -12 -25 0
-3 8 -10 -16 0
-4 20 25 30 0
3 8 15 27 0
12 -20 -27 30 0
-4 -11 -12 17 0
3 -23 24 28 0
10 13 22 -23 0
4 11 -22 -26 0
-5 -9 -16 -17 0
2 4 -23 26 0
2 14 -16 -26 0
2 24 25 26 0
4 11 -19 30 0
16 -22 -27 29 0
1 5 -10 -27 0
7 -11 16 -22 0
4 12 -29 30 0
1 9 -19 30 0
11 18 20 21 0
-7 -9 -10 21 0
-9 13 17 18 0
-4 9 -17 -23 0
2 7 -16 22 0
12 -15 -21 -27 0
-1 -6 -11 28 0
-1 6 -21 -22 0
